interpreter/interpreter/examples/formulas/tiwariNonLinear-Linear4Depth3Base.smt2
; this problem comes from the set
; http://www.csl.sri.com/users/tiwari/existsforall/nonlinear-examples.tgz
; from http://www.csl.sri.com/users/tiwari/existsforall/
; The interesting thing about this input is that it is a problem that, on
; the surface has 28 variables, yet by the time qfr finishes doing its
; substitutions, there are only four variables!
(set-info :status unsat)
(set-logic QFNRA)
(set-info :source | Simple test example.|)
(set-info :smt-lib-version 2.0)
(declare-fun x0 () Real)
(declare-fun x1 () Real)
(declare-fun x2 () Real)
(declare-fun x3 () Real)
(declare-fun x4 () Real)
(declare-fun x5 () Real)
(declare-fun x6 () Real)
(declare-fun x7 () Real)
(declare-fun x8 () Real)
(declare-fun x9 () Real)
(declare-fun x10 () Real)
(declare-fun x11 () Real)
(declare-fun x12 () Real)
(declare-fun x13 () Real)
(declare-fun x14 () Real)
(declare-fun x15 () Real)
(declare-fun x16 () Real)
(declare-fun x17 () Real)
(declare-fun x18 () Real)
(declare-fun x19 () Real)
(declare-fun x20 () Real)
(declare-fun x21 () Real)
(declare-fun x22 () Real)
(declare-fun x23 () Real)
(declare-fun x24 () Real)
(declare-fun x25 () Real)
(declare-fun x26 () Real)
(declare-fun x27 () Real)
(declare-fun x28 () Real)
(assert 
(and 
(= x0 0)
(= x1 1)
(= x3 (* x2 (/ 707106781187 1000000000000)))
(= x5 (* x4 (/ -707106781187 1000000000000)))
(= x6 (* x0 (/ 707106781187 1000000000000)))
(= x7 (* x1 (/ -707106781187 1000000000000)))
(= x13 (* x12 (/ 707106781187 1000000000000)))
(= x15 (* x14 (/ -707106781187 1000000000000)))
(= x16 (* x2 (/ 707106781187 1000000000000)))
(= x17 (* x4 (/ -707106781187 1000000000000)))
 (= x21 (* x20 (/ 707106781187 1000000000000)))
 (= x23 (* x22 (/ -707106781187 1000000000000)))
 (= x24 (* x12 (/ 707106781187 1000000000000)))
 (= x25 (* x14 (/ -707106781187 1000000000000)))
 (not (< x14 0))
 (not (< x22 0))
 (<= (+ (* x21 x21) (* x23 x23)) (+ (* x24 x24) (* x25 x25)))
 (<= (+ (* x24 x24) (* x25 x25)) (+ (* x21 x21) (* x23 x23)))
 (= x26 x18)
 (= x27 x19)
 (not (< x4 0))
 (<= (+ (* x13 x13) (* x15 x15)) (+ (* x16 x16) (* x17 x17)))
 (<= (+ (* x16 x16) (* x17 x17)) (+ (* x13 x13) (* x15 x15)))
 (= x18 x8)
 (= x19 x10)
 (not (< x1 0))
 (<= (+ (* x3 x3) (* x5 x5)) (+ (* x6 x6) (* x7 x7)))
 (<= (+ (* x6 x6) (* x7 x7)) (+ (* x3 x3) (* x5 x5)))
 (= x8 x9)
 (= x10 x11)
 (or (not (<= x20 1)) (not (<= x12 1)) (not (<= x2 1)) (not (<= x0 1)))
)
)
(check)
